KPOINTS created by Atomic Simulation Environment
0
Gamma
6 11 6
0 0 0
