KPOINTS created by Atomic Simulation Environment
0
Gamma
10 10 7
0 0 0
