KPOINTS created by Atomic Simulation Environment
0
Gamma
11 11 4
0 0 0
