INCAR created by Atomic Simulation Environment
 ENCUT = 400.000000
 SIGMA = 0.100000
 EDIFF = 1.00e-06
 EDIFFG = 1.00e-02
 GGA = PE
 IBRION = 2
 ISIF = 3
 ISMEAR = 0
 ISPIN = 1
 LDAUTYPE = 2
 NELMIN = 4
 NSW = 20
 NCORE = 4
 LCHARG = .FALSE.
 LWAVE = .FALSE.
